55
3 1 3
4 1 1
4 2 4
5 0 5
6 2 5
6 4 4
6 5 4
7 2 3
8 1 1
8 2 3
8 4 2
8 5 3
9 2 1
9 4 4
9 8 2
10 0 3
10 2 1
10 4 2
10 5 3
10 7 1
10 9 4
11 0 2
11 2 4
11 3 1
11 4 3
11 5 5
11 6 5
11 8 4
11 9 4
12 0 2
12 1 4
12 2 5
12 9 2
12 10 4
12 11 5
13 0 4
13 3 3
13 9 5
13 10 4
13 11 1
13 12 4
14 1 3
14 6 3
14 7 4
14 8 3
14 10 3
14 12 3
14 13 3
15 1 4
15 4 4
15 5 2
15 7 1
15 9 5
15 14 4
16 0 4
16 2 5
16 3 2
16 7 4
16 8 5
16 9 3
16 10 5
16 15 2
17 3 2
17 5 2
17 8 2
17 10 5
17 13 5
17 15 1
18 2 3
18 4 3
18 6 2
18 8 2
18 15 4
19 0 3
19 7 2
19 8 1
19 9 2
19 10 2
19 13 3
19 14 1
19 17 2
20 0 4
20 2 1
20 5 5
20 7 4
20 8 3
20 9 4
20 11 1
20 18 3
21 2 1
21 6 4
21 8 3
21 9 1
21 15 3
21 18 5
22 0 1
22 3 5
22 4 5
22 6 4
22 7 1
22 9 1
22 10 2
22 16 2
22 18 5
22 20 1
23 2 4
23 6 4
23 7 2
23 10 1
23 12 3
23 16 2
23 17 3
23 19 3
23 20 3
23 22 5
24 2 1
24 3 1
24 6 2
24 7 4
24 8 4
24 10 2
24 13 5
24 15 3
24 17 1
24 18 5
24 19 5
24 20 3
24 22 3
25 1 1
25 3 1
25 5 3
25 6 4
25 7 3
25 8 4
25 10 1
25 12 4
25 14 5
25 18 2
25 19 2
25 20 5
25 22 1
25 23 3
25 24 4
26 2 1
26 3 2
26 5 2
26 7 1
26 10 4
26 11 3
26 12 2
26 14 1
26 15 2
26 20 1
26 21 3
27 1 5
27 2 1
27 3 5
27 4 3
27 12 1
27 13 1
27 15 3
27 16 3
27 17 2
27 18 5
27 19 4
27 22 5
27 25 4
28 0 1
28 2 5
28 3 5
28 5 2
28 6 2
28 7 2
28 8 5
28 9 3
28 10 5
28 11 5
28 17 5
28 18 1
28 22 3
28 24 3
28 25 3
29 1 3
29 2 5
29 4 5
29 5 5
29 6 2
29 8 5
29 12 2
29 13 5
29 14 3
29 15 3
29 19 4
29 20 3
29 21 1
29 22 5
29 23 2
29 26 2
29 28 2
30 2 3
30 7 4
30 10 3
30 12 1
30 13 2
30 16 4
30 18 3
30 19 1
30 21 4
31 2 4
31 4 1
31 5 5
31 6 1
31 7 5
31 9 2
31 12 5
31 13 1
31 14 3
31 18 2
31 20 3
31 21 1
31 24 1
31 25 5
31 27 2
31 28 5
31 30 3
32 1 1
32 2 4
32 8 1
32 10 3
32 11 2
32 12 2
32 15 3
32 18 5
32 19 1
32 21 1
32 23 3
32 27 2
32 28 1
32 31 2
33 2 2
33 8 2
33 9 2
33 11 2
33 15 3
33 19 4
33 20 1
33 23 2
33 25 3
33 32 4
34 1 3
34 2 2
34 3 4
34 4 5
34 5 1
34 6 2
34 8 2
34 10 4
34 12 4
34 14 5
34 18 2
34 22 5
34 23 1
34 24 5
34 27 5
34 28 1
34 31 4
34 32 2
35 4 5
35 5 5
35 8 4
35 9 2
35 10 3
35 11 2
35 13 3
35 17 4
35 19 2
35 20 1
35 21 3
35 22 1
35 25 5
35 26 5
35 28 3
35 29 2
35 30 2
35 32 5
35 33 5
35 34 3
36 2 1
36 3 1
36 4 3
36 7 2
36 8 1
36 9 3
36 11 1
36 13 3
36 14 1
36 16 4
36 22 2
36 25 4
36 27 3
36 28 5
36 29 1
36 33 2
36 35 5
37 0 1
37 1 2
37 4 2
37 5 1
37 15 4
37 24 1
37 25 4
37 26 5
37 27 2
37 29 2
37 31 4
37 32 5
37 33 5
37 34 4
37 35 4
38 1 1
38 2 3
38 3 2
38 5 4
38 6 2
38 7 5
38 9 3
38 10 1
38 12 2
38 14 1
38 17 5
38 18 3
38 20 3
38 24 4
38 28 3
38 31 3
38 33 4
38 35 2
38 37 4
39 0 1
39 3 1
39 4 3
39 5 1
39 6 2
39 8 2
39 10 1
39 16 3
39 17 5
39 18 3
39 22 1
39 24 2
39 25 3
39 26 2
39 27 2
39 28 4
39 30 5
39 31 4
39 32 4
39 35 5
40 1 1
40 3 4
40 4 5
40 5 4
40 8 3
40 12 5
40 13 4
40 14 4
40 15 3
40 16 4
40 17 1
40 19 5
40 20 5
40 22 3
40 23 2
40 25 4
40 26 5
40 32 4
40 33 1
40 34 2
41 0 2
41 3 5
41 4 1
41 7 3
41 9 3
41 11 2
41 12 5
41 13 3
41 14 2
41 15 4
41 24 5
41 25 5
41 28 5
41 29 5
41 30 1
41 31 2
41 32 5
41 34 2
41 35 5
41 38 2
41 39 5
42 0 4
42 2 5
42 6 3
42 7 2
42 13 2
42 14 2
42 15 5
42 16 3
42 17 4
42 18 3
42 19 1
42 20 1
42 22 1
42 23 2
42 24 1
42 27 3
42 29 1
42 30 2
42 31 4
42 32 5
42 38 4
43 2 2
43 5 5
43 7 5
43 8 4
43 9 3
43 12 3
43 17 5
43 19 2
43 25 4
43 27 4
43 30 5
43 31 2
43 32 1
43 33 5
43 35 2
43 36 4
44 0 2
44 1 4
44 4 1
44 6 4
44 7 3
44 9 4
44 11 3
44 12 5
44 13 4
44 14 1
44 18 1
44 23 3
44 24 1
44 25 2
44 26 5
44 27 5
44 28 5
44 30 2
44 31 4
44 34 4
44 35 5
44 38 4
44 40 1
44 42 1
44 43 4
45 2 4
45 4 4
45 6 2
45 9 4
45 10 4
45 11 1
45 14 5
45 15 4
45 16 3
45 18 4
45 19 5
45 20 5
45 24 5
45 27 3
45 28 5
45 30 2
45 36 2
45 37 1
45 41 3
45 42 4
45 43 4
46 0 4
46 1 4
46 2 3
46 3 4
46 5 1
46 6 5
46 8 5
46 9 3
46 11 5
46 13 4
46 19 2
46 20 3
46 21 2
46 25 1
46 26 3
46 27 4
46 28 4
46 29 2
46 30 1
46 31 4
46 35 3
46 37 1
46 38 2
46 40 3
47 0 4
47 1 1
47 2 5
47 3 2
47 5 5
47 7 3
47 8 2
47 10 3
47 11 5
47 14 5
47 15 2
47 16 3
47 17 1
47 18 4
47 20 4
47 22 5
47 25 5
47 30 1
47 32 1
47 34 1
47 41 4
47 44 4
48 3 5
48 6 1
48 12 5
48 13 5
48 14 3
48 16 2
48 17 2
48 20 4
48 21 1
48 24 2
48 28 5
48 29 2
48 31 4
48 32 1
48 34 5
48 36 4
48 37 3
48 38 2
48 39 4
48 40 1
48 43 1
48 46 3
49 0 3
49 2 5
49 6 3
49 7 3
49 11 5
49 12 1
49 15 4
49 18 4
49 22 1
49 23 2
49 25 4
49 26 5
49 27 1
49 30 3
49 33 4
49 34 1
49 35 4
49 36 2
49 37 4
49 38 2
49 39 2
49 41 2
49 46 1
49 47 5
49 48 2
50 1 1
50 6 2
50 8 2
50 9 5
50 16 5
50 18 5
50 20 4
50 21 3
50 22 5
50 24 4
50 27 3
50 29 3
50 34 4
50 35 4
50 36 1
50 38 1
50 43 2
50 44 4
50 48 2
50 49 2
51 2 4
51 4 4
51 6 1
51 9 2
51 10 3
51 13 4
51 14 3
51 15 4
51 16 1
51 18 2
51 19 1
51 20 4
51 21 3
51 22 1
51 24 2
51 27 2
51 31 1
51 32 4
51 34 1
51 35 1
51 40 2
51 42 4
51 46 1
51 49 1
51 50 5
52 0 5
52 3 1
52 4 4
52 5 4
52 8 1
52 11 1
52 14 3
52 15 3
52 16 2
52 20 2
52 22 1
52 26 3
52 28 4
52 30 4
52 32 5
52 34 2
52 35 4
52 40 2
52 41 5
52 42 1
52 44 1
52 45 5
52 46 3
52 47 1
52 48 3
53 1 1
53 5 5
53 8 3
53 9 5
53 11 4
53 13 3
53 14 5
53 16 3
53 18 5
53 22 5
53 24 1
53 25 2
53 26 3
53 31 2
53 34 2
53 35 2
53 38 5
53 39 5
53 44 2
53 45 2
53 46 2
53 47 5
53 48 3
53 51 4
54 1 2
54 4 5
54 5 1
54 9 2
54 10 2
54 11 2
54 12 1
54 14 2
54 16 2
54 17 4
54 20 1
54 21 1
54 22 2
54 23 1
54 24 1
54 26 4
54 27 5
54 31 3
54 34 1
54 35 3
54 36 3
54 37 5
54 40 1
54 41 1
54 43 5
54 44 4
54 45 1
54 46 5
54 51 5
54 52 2
